results - Copia/mps/URT_06_deadline_heurTrue.mps
NAME JobShopModel
ROWS
 N  OBJ
 G  c0      
 L  c1      
 G  c2      
 L  c3      
 G  c4      
 L  c5      
 G  c6      
 G  c7      
 G  c8      
 E  c9      
 E  c10     
 E  c11     
 E  c12     
 E  c13     
 E  c14     
 E  c15     
 E  c16     
 E  c17     
 L  c18     
 L  c19     
 L  c20     
 L  c21     
 L  c22     
 L  c23     
 L  c24     
 L  c25     
 L  c26     
 G  c27     
 G  c28     
 G  c29     
 G  c30     
 G  c31     
 G  c32     
 G  c33     
 G  c34     
 G  c35     
 G  c36     
 G  c37     
 G  c38     
 G  c39     
 G  c40     
 G  c41     
 G  c42     
 G  c43     
 G  c44     
 G  c45     
 G  c46     
 G  c47     
 G  c48     
 G  c49     
 G  c50     
 G  c51     
 G  c52     
 G  c53     
 G  c54     
 G  c55     
 G  c56     
 G  c57     
 G  c58     
 G  c59     
 G  c60     
 G  c61     
 G  c62     
 G  c63     
 G  c64     
 G  c65     
 G  c66     
 G  c67     
 G  c68     
 G  c69     
 G  c70     
 G  c71     
 G  c72     
 G  c73     
 G  c74     
 G  c75     
 G  c76     
 G  c77     
 G  c78     
 G  c79     
 G  c80     
 G  c81     
 G  c82     
 G  OF_constraint
COLUMNS
    MARKER    'MARKER'                 'INTORG'
    y[0,0,1]  c0        4
    y[0,0,1]  c1        4
    y[0,0,1]  c9        1
    y[0,0,1]  c18       -10000000
    y[0,0,1]  c33       -10000000
    y[0,0,1]  c34       -10000000
    y[0,0,1]  c35       -10000000
    y[0,0,1]  c36       -10000000
    y[0,0,1]  c37       -10000000
    y[0,0,1]  c38       -10000000
    y[0,0,1]  c39       -10000000
    y[0,0,1]  c40       -10000000
    y[0,0,1]  c45       -10000000
    y[0,0,1]  c46       -10000000
    y[0,0,1]  c65       -1
    y[0,1,2]  c10       1
    y[0,1,2]  c19       -10000000
    y[0,1,2]  c27       -4
    y[0,1,2]  c41       -10000000
    y[0,1,2]  c42       -10000000
    y[0,1,2]  c43       -10000000
    y[0,1,2]  c44       -10000000
    y[0,1,2]  c67       -2
    y[0,2,1]  c11       1
    y[0,2,1]  c20       -10000000
    y[0,2,1]  c28       -3
    y[0,2,1]  c33       -10000000
    y[0,2,1]  c34       -10000000
    y[0,2,1]  c45       -10000000
    y[0,2,1]  c46       -10000000
    y[0,2,1]  c47       -10000000
    y[0,2,1]  c48       -10000000
    y[0,2,1]  c49       -10000000
    y[0,2,1]  c50       -10000000
    y[0,2,1]  c51       -10000000
    y[0,2,1]  c52       -10000000
    y[0,2,1]  c69       -2
    y[1,0,1]  c2        4
    y[1,0,1]  c3        4
    y[1,0,1]  c12       1
    y[1,0,1]  c21       -10000000
    y[1,0,1]  c35       -10000000
    y[1,0,1]  c36       -10000000
    y[1,0,1]  c47       -10000000
    y[1,0,1]  c48       -10000000
    y[1,0,1]  c53       -10000000
    y[1,0,1]  c54       -10000000
    y[1,0,1]  c55       -10000000
    y[1,0,1]  c56       -10000000
    y[1,0,1]  c71       -2
    y[1,1,2]  c13       1
    y[1,1,2]  c22       -10000000
    y[1,1,2]  c29       -5
    y[1,1,2]  c41       -10000000
    y[1,1,2]  c42       -10000000
    y[1,1,2]  c57       -10000000
    y[1,1,2]  c58       -10000000
    y[1,1,2]  c59       -10000000
    y[1,1,2]  c60       -10000000
    y[1,1,2]  c73       -1
    y[1,2,2]  c14       1
    y[1,2,2]  c23       -10000000
    y[1,2,2]  c30       -2
    y[1,2,2]  c43       -10000000
    y[1,2,2]  c44       -10000000
    y[1,2,2]  c57       -10000000
    y[1,2,2]  c58       -10000000
    y[1,2,2]  c59       -10000000
    y[1,2,2]  c60       -10000000
    y[1,2,2]  c75       -2
    y[2,0,1]  c4        5
    y[2,0,1]  c5        5
    y[2,0,1]  c15       1
    y[2,0,1]  c24       -10000000
    y[2,0,1]  c37       -10000000
    y[2,0,1]  c38       -10000000
    y[2,0,1]  c49       -10000000
    y[2,0,1]  c50       -10000000
    y[2,0,1]  c53       -10000000
    y[2,0,1]  c54       -10000000
    y[2,0,1]  c61       -10000000
    y[2,0,1]  c62       -10000000
    y[2,0,1]  c63       -10000000
    y[2,0,1]  c64       -10000000
    y[2,0,1]  c77       -3
    y[2,1,0]  c16       1
    y[2,1,0]  c25       -10000000
    y[2,1,0]  c31       -5
    y[2,2,1]  c17       1
    y[2,2,1]  c26       -10000000
    y[2,2,1]  c32       -3
    y[2,2,1]  c39       -10000000
    y[2,2,1]  c40       -10000000
    y[2,2,1]  c51       -10000000
    y[2,2,1]  c52       -10000000
    y[2,2,1]  c55       -10000000
    y[2,2,1]  c56       -10000000
    y[2,2,1]  c61       -10000000
    y[2,2,1]  c62       -10000000
    y[2,2,1]  c63       -10000000
    y[2,2,1]  c64       -10000000
    y[2,2,1]  c81       -3
    x[0,0,0,0]  OBJ       0
    x[0,0,0,1]  OBJ       0
    x[0,0,0,2]  c33       10000000
    x[0,0,0,2]  c34       -10000000
    x[0,0,1,0]  c35       10000000
    x[0,0,1,0]  c36       -10000000
    x[0,0,1,1]  OBJ       0
    x[0,0,1,2]  OBJ       0
    x[0,0,2,0]  c37       10000000
    x[0,0,2,0]  c38       -10000000
    x[0,0,2,1]  OBJ       0
    x[0,0,2,2]  c39       10000000
    x[0,0,2,2]  c40       -10000000
    x[0,1,0,0]  OBJ       0
    x[0,1,0,1]  OBJ       0
    x[0,1,0,2]  OBJ       0
    x[0,1,1,0]  OBJ       0
    x[0,1,1,1]  c41       10000000
    x[0,1,1,1]  c42       -10000000
    x[0,1,1,2]  c43       10000000
    x[0,1,1,2]  c44       -10000000
    x[0,1,2,0]  OBJ       0
    x[0,1,2,1]  OBJ       0
    x[0,1,2,2]  OBJ       0
    x[0,2,0,0]  c45       10000000
    x[0,2,0,0]  c46       -10000000
    x[0,2,0,1]  OBJ       0
    x[0,2,0,2]  OBJ       0
    x[0,2,1,0]  c47       10000000
    x[0,2,1,0]  c48       -10000000
    x[0,2,1,1]  OBJ       0
    x[0,2,1,2]  OBJ       0
    x[0,2,2,0]  c49       10000000
    x[0,2,2,0]  c50       -10000000
    x[0,2,2,1]  OBJ       0
    x[0,2,2,2]  c51       10000000
    x[0,2,2,2]  c52       -10000000
    x[1,0,0,0]  OBJ       0
    x[1,0,0,1]  OBJ       0
    x[1,0,0,2]  OBJ       0
    x[1,0,1,0]  OBJ       0
    x[1,0,1,1]  OBJ       0
    x[1,0,1,2]  OBJ       0
    x[1,0,2,0]  c53       10000000
    x[1,0,2,0]  c54       -10000000
    x[1,0,2,1]  OBJ       0
    x[1,0,2,2]  c55       10000000
    x[1,0,2,2]  c56       -10000000
    x[1,1,0,0]  OBJ       0
    x[1,1,0,1]  OBJ       0
    x[1,1,0,2]  OBJ       0
    x[1,1,1,0]  OBJ       0
    x[1,1,1,1]  OBJ       0
    x[1,1,1,2]  c57       10000000
    x[1,1,1,2]  c58       -10000000
    x[1,1,2,0]  OBJ       0
    x[1,1,2,1]  OBJ       0
    x[1,1,2,2]  OBJ       0
    x[1,2,0,0]  OBJ       0
    x[1,2,0,1]  OBJ       0
    x[1,2,0,2]  OBJ       0
    x[1,2,1,0]  OBJ       0
    x[1,2,1,1]  c59       10000000
    x[1,2,1,1]  c60       -10000000
    x[1,2,1,2]  OBJ       0
    x[1,2,2,0]  OBJ       0
    x[1,2,2,1]  OBJ       0
    x[1,2,2,2]  OBJ       0
    x[2,0,0,0]  OBJ       0
    x[2,0,0,1]  OBJ       0
    x[2,0,0,2]  OBJ       0
    x[2,0,1,0]  OBJ       0
    x[2,0,1,1]  OBJ       0
    x[2,0,1,2]  OBJ       0
    x[2,0,2,0]  OBJ       0
    x[2,0,2,1]  OBJ       0
    x[2,0,2,2]  c61       10000000
    x[2,0,2,2]  c62       -10000000
    x[2,1,0,0]  OBJ       0
    x[2,1,0,1]  OBJ       0
    x[2,1,0,2]  OBJ       0
    x[2,1,1,0]  OBJ       0
    x[2,1,1,1]  OBJ       0
    x[2,1,1,2]  OBJ       0
    x[2,1,2,0]  OBJ       0
    x[2,1,2,1]  OBJ       0
    x[2,1,2,2]  OBJ       0
    x[2,2,0,0]  OBJ       0
    x[2,2,0,1]  OBJ       0
    x[2,2,0,2]  OBJ       0
    x[2,2,1,0]  OBJ       0
    x[2,2,1,1]  OBJ       0
    x[2,2,1,2]  OBJ       0
    x[2,2,2,0]  c63       10000000
    x[2,2,2,0]  c64       -10000000
    x[2,2,2,1]  OBJ       0
    x[2,2,2,2]  OBJ       0
    s[0,0,1]  c0        1
    s[0,0,1]  c1        1
    s[0,0,1]  c18       1
    s[0,0,1]  c27       1
    s[0,0,1]  c33       -1
    s[0,0,1]  c34       1
    s[0,0,1]  c35       -1
    s[0,0,1]  c36       1
    s[0,0,1]  c37       -1
    s[0,0,1]  c38       1
    s[0,0,1]  c39       -1
    s[0,0,1]  c40       1
    s[0,0,1]  c45       1
    s[0,0,1]  c46       -1
    s[0,0,1]  c65       1
    s[0,0,1]  c66       1
    s[0,1,2]  c19       1
    s[0,1,2]  c27       -1
    s[0,1,2]  c28       1
    s[0,1,2]  c41       -1
    s[0,1,2]  c42       1
    s[0,1,2]  c43       -1
    s[0,1,2]  c44       1
    s[0,1,2]  c67       1
    s[0,1,2]  c68       1
    s[0,2,1]  c20       1
    s[0,2,1]  c28       -1
    s[0,2,1]  c33       1
    s[0,2,1]  c34       -1
    s[0,2,1]  c45       -1
    s[0,2,1]  c46       1
    s[0,2,1]  c47       -1
    s[0,2,1]  c48       1
    s[0,2,1]  c49       -1
    s[0,2,1]  c50       1
    s[0,2,1]  c51       -1
    s[0,2,1]  c52       1
    s[0,2,1]  c69       1
    s[0,2,1]  c70       1
    s[1,0,1]  c2        1
    s[1,0,1]  c3        1
    s[1,0,1]  c21       1
    s[1,0,1]  c29       1
    s[1,0,1]  c35       1
    s[1,0,1]  c36       -1
    s[1,0,1]  c47       1
    s[1,0,1]  c48       -1
    s[1,0,1]  c53       -1
    s[1,0,1]  c54       1
    s[1,0,1]  c55       -1
    s[1,0,1]  c56       1
    s[1,0,1]  c71       1
    s[1,0,1]  c72       1
    s[1,1,2]  c22       1
    s[1,1,2]  c29       -1
    s[1,1,2]  c30       1
    s[1,1,2]  c41       1
    s[1,1,2]  c42       -1
    s[1,1,2]  c57       -1
    s[1,1,2]  c58       1
    s[1,1,2]  c59       1
    s[1,1,2]  c60       -1
    s[1,1,2]  c73       1
    s[1,1,2]  c74       1
    s[1,2,2]  c23       1
    s[1,2,2]  c30       -1
    s[1,2,2]  c43       1
    s[1,2,2]  c44       -1
    s[1,2,2]  c57       1
    s[1,2,2]  c58       -1
    s[1,2,2]  c59       -1
    s[1,2,2]  c60       1
    s[1,2,2]  c75       1
    s[1,2,2]  c76       1
    s[2,0,1]  c4        1
    s[2,0,1]  c5        1
    s[2,0,1]  c24       1
    s[2,0,1]  c31       1
    s[2,0,1]  c32       1
    s[2,0,1]  c37       1
    s[2,0,1]  c38       -1
    s[2,0,1]  c49       1
    s[2,0,1]  c50       -1
    s[2,0,1]  c53       1
    s[2,0,1]  c54       -1
    s[2,0,1]  c61       -1
    s[2,0,1]  c62       1
    s[2,0,1]  c63       1
    s[2,0,1]  c64       -1
    s[2,0,1]  c77       1
    s[2,0,1]  c78       1
    s[2,1,0]  c25       1
    s[2,1,0]  c31       -1
    s[2,1,0]  c79       1
    s[2,1,0]  c80       1
    s[2,2,1]  c26       1
    s[2,2,1]  c32       -1
    s[2,2,1]  c39       1
    s[2,2,1]  c40       -1
    s[2,2,1]  c51       1
    s[2,2,1]  c52       -1
    s[2,2,1]  c55       1
    s[2,2,1]  c56       -1
    s[2,2,1]  c61       1
    s[2,2,1]  c62       -1
    s[2,2,1]  c63       -1
    s[2,2,1]  c64       1
    s[2,2,1]  c81       1
    s[2,2,1]  c82       1
    Z_FO      OBJ       1
    Z_FO      OF_constraint  1
    C100      c0        -10000000
    C100      c1        -10000000
    C100      c6        1
    C100      OF_constraint  2
    C101      c2        -10000000
    C101      c3        -10000000
    C101      c7        1
    C101      OF_constraint  8
    C102      c4        -10000000
    C102      c5        -10000000
    C102      c8        1
    C102      OF_constraint  4
    MARKER    'MARKER'                 'INTEND'
RHS
    RHS1      c0        -9999994
    RHS1      c1        6
    RHS1      c2        -9999988
    RHS1      c3        12
    RHS1      c4        -9999991
    RHS1      c5        9
    RHS1      c9        1
    RHS1      c10       1
    RHS1      c11       1
    RHS1      c12       1
    RHS1      c13       1
    RHS1      c14       1
    RHS1      c15       1
    RHS1      c16       1
    RHS1      c17       1
    RHS1      c33       -19999976
    RHS1      c34       -29999994
    RHS1      c35       -19999980
    RHS1      c36       -29999992
    RHS1      c37       -19999980
    RHS1      c38       -29999990
    RHS1      c39       -19999991
    RHS1      c40       -29999985
    RHS1      c41       -19999984
    RHS1      c42       -29999970
    RHS1      c43       -19999994
    RHS1      c44       -29999978
    RHS1      c45       -19999994
    RHS1      c46       -29999976
    RHS1      c47       -19999995
    RHS1      c48       -29999990
    RHS1      c49       -19999992
    RHS1      c50       -29999975
    RHS1      c51       -19999987
    RHS1      c52       -29999985
    RHS1      c53       -19999988
    RHS1      c54       -29999983
    RHS1      c55       -19999992
    RHS1      c56       -29999985
    RHS1      c57       -19999970
    RHS1      c58       -29999990
    RHS1      c59       -19999990
    RHS1      c60       -29999970
    RHS1      c61       -19999991
    RHS1      c62       -29999991
    RHS1      c63       -19999991
    RHS1      c64       -29999991
BOUNDS
 BV BND1      y[0,0,1]
 BV BND1      y[0,1,2]
 BV BND1      y[0,2,1]
 BV BND1      y[1,0,1]
 BV BND1      y[1,1,2]
 BV BND1      y[1,2,2]
 BV BND1      y[2,0,1]
 BV BND1      y[2,1,0]
 BV BND1      y[2,2,1]
 BV BND1      x[0,0,0,0]
 BV BND1      x[0,0,0,1]
 BV BND1      x[0,0,0,2]
 BV BND1      x[0,0,1,0]
 BV BND1      x[0,0,1,1]
 BV BND1      x[0,0,1,2]
 BV BND1      x[0,0,2,0]
 BV BND1      x[0,0,2,1]
 BV BND1      x[0,0,2,2]
 BV BND1      x[0,1,0,0]
 BV BND1      x[0,1,0,1]
 BV BND1      x[0,1,0,2]
 BV BND1      x[0,1,1,0]
 BV BND1      x[0,1,1,1]
 BV BND1      x[0,1,1,2]
 BV BND1      x[0,1,2,0]
 BV BND1      x[0,1,2,1]
 BV BND1      x[0,1,2,2]
 BV BND1      x[0,2,0,0]
 BV BND1      x[0,2,0,1]
 BV BND1      x[0,2,0,2]
 BV BND1      x[0,2,1,0]
 BV BND1      x[0,2,1,1]
 BV BND1      x[0,2,1,2]
 BV BND1      x[0,2,2,0]
 BV BND1      x[0,2,2,1]
 BV BND1      x[0,2,2,2]
 BV BND1      x[1,0,0,0]
 BV BND1      x[1,0,0,1]
 BV BND1      x[1,0,0,2]
 BV BND1      x[1,0,1,0]
 BV BND1      x[1,0,1,1]
 BV BND1      x[1,0,1,2]
 BV BND1      x[1,0,2,0]
 BV BND1      x[1,0,2,1]
 BV BND1      x[1,0,2,2]
 BV BND1      x[1,1,0,0]
 BV BND1      x[1,1,0,1]
 BV BND1      x[1,1,0,2]
 BV BND1      x[1,1,1,0]
 BV BND1      x[1,1,1,1]
 BV BND1      x[1,1,1,2]
 BV BND1      x[1,1,2,0]
 BV BND1      x[1,1,2,1]
 BV BND1      x[1,1,2,2]
 BV BND1      x[1,2,0,0]
 BV BND1      x[1,2,0,1]
 BV BND1      x[1,2,0,2]
 BV BND1      x[1,2,1,0]
 BV BND1      x[1,2,1,1]
 BV BND1      x[1,2,1,2]
 BV BND1      x[1,2,2,0]
 BV BND1      x[1,2,2,1]
 BV BND1      x[1,2,2,2]
 BV BND1      x[2,0,0,0]
 BV BND1      x[2,0,0,1]
 BV BND1      x[2,0,0,2]
 BV BND1      x[2,0,1,0]
 BV BND1      x[2,0,1,1]
 BV BND1      x[2,0,1,2]
 BV BND1      x[2,0,2,0]
 BV BND1      x[2,0,2,1]
 BV BND1      x[2,0,2,2]
 BV BND1      x[2,1,0,0]
 BV BND1      x[2,1,0,1]
 BV BND1      x[2,1,0,2]
 BV BND1      x[2,1,1,0]
 BV BND1      x[2,1,1,1]
 BV BND1      x[2,1,1,2]
 BV BND1      x[2,1,2,0]
 BV BND1      x[2,1,2,1]
 BV BND1      x[2,1,2,2]
 BV BND1      x[2,2,0,0]
 BV BND1      x[2,2,0,1]
 BV BND1      x[2,2,0,2]
 BV BND1      x[2,2,1,0]
 BV BND1      x[2,2,1,1]
 BV BND1      x[2,2,1,2]
 BV BND1      x[2,2,2,0]
 BV BND1      x[2,2,2,1]
 BV BND1      x[2,2,2,2]
 LI BND1      s[0,0,1]  0
 LI BND1      s[0,1,2]  0
 LI BND1      s[0,2,1]  0
 LI BND1      s[1,0,1]  0
 LI BND1      s[1,1,2]  0
 LI BND1      s[1,2,2]  0
 LI BND1      s[2,0,1]  0
 LI BND1      s[2,1,0]  0
 LI BND1      s[2,2,1]  0
 LI BND1      Z_FO      0
 BV BND1      C100    
 BV BND1      C101    
 BV BND1      C102    
QCMATRIX   OF_constraint
    s[0,0,1]  C100      -0.5
    C100      s[0,0,1]  -0.5
    s[1,0,1]  C101      -0.5
    C101      s[1,0,1]  -0.5
    s[2,0,1]  C102      -0.5
    C102      s[2,0,1]  -0.5
ENDATA
